603338
186,171,150,90,109,88,228,170,142,4,21,217,153,129,146,12,187,103,224,33,38,203,6,104,212,45,230,204,172,168,93,213,59,58,139,57,76,11,143,197,214,46,125,227,19,134,111,48,13,225,47,17,176,223,44,220,30,97,194,165,14,110,120,8,15,138,3,185,189,16,60,137,64,5,156,211,145,117,22,26,144,68,9,166,101,184,96,91,89,116,161,205,107,196,179,192,37,34,75,215,78,55,130,81,40,27,169,102,62,151,28,50,108,94,35,87,112,155,133,229,36,183,20,210,7,1,72,63,32,118,49,71,140,162,135,83,157,74,67,39,207,43,31,127,147,163,178,199,159,208,23,69,226,177,152,122,51,98,42,160,113,73,209,126,218,206,136,195,193,119,86,70,114,191,201,10,198,200,65,154,164,174,29,84,95,79,167,85,188,181,124,173,131,148,182,61,123,25,80,221,52,132,149,115,2,82,158,180,121,77,222,41,128,106,141,219,24,66,190,99,202,105,216,100,53,92,175,54,18,56